0 24 23
1 20 24
2 23 28
3 17 30
4 17 32
5 31 33
6 28 33
7 25 33
8 28 32
9 26 33
10 23 31
11 23 29
12 25 28
13 22 27
14 27 27
15 26 26
16 23 26
17 23 25
18 11 24
19 12 23
20 23 24
21 23 24
22 20 23
23 11 21
24 20 20
25 7 19
26 9 17
27 11 16
28 15 15
29 8 14
30 8 11
31 8 9
32 12 13
33 7 13
34 11 12
35 6 11
36 9 10
37 8 8
38 6 6
39 4 5
40 6 6
41 6 6
42 4 5
43 4 4
44 1 2
45 2 3
46 1 2
47 1 1

